Gurobi 12.0.3:   lim:time = 14400

  mip:bestbound = 1

Set parameter LogToConsole to value 1

  tech:outlev = 1

Set parameter Cuts to value 3

  cut:cuts = 3

Set parameter Presolve to value 2

  pre:solve = 2

Set parameter MIPFocus to value 2

  mip:focus = 2

Set parameter Symmetry to value 2

  mip:symmetry = 2

Set parameter InfUnbdInfo to value 1

Gurobi Optimizer version 12.0.3 build v12.0.3rc0 (win64 - Windows 11.0 (26100.2))



CPU model: 12th Gen Intel(R) Core(TM) i7-12700, instruction set [SSE2|AVX|AVX2]

Thread count: 12 physical cores, 20 logical processors, using up to 20 threads



Non-default parameters:

TimeLimit  14400

MIPFocus  2

Symmetry  2

Cuts  3

InfUnbdInfo  1

Presolve  2



Optimize a model with 388 rows, 794 columns and 4455 nonzeros

Model fingerprint: 0xb83afaa5

Model has 4 quadratic constraints

Variable types: 37 continuous, 757 integer (0 binary)

Coefficient statistics:

  Matrix range     [1e+00, 1e+05]

  QMatrix range    [1e+00, 1e+00]

  QLMatrix range   [1e+01, 1e+01]

  Objective range  [6e+00, 1e+02]

  Bounds range     [1e+00, 1e+02]

  RHS range        [1e+00, 1e+05]

  QRHS range       [1e+02, 1e+02]

Presolve removed 34 rows and 82 columns

Presolve time: 0.14s

Presolved: 830 rows, 1184 columns, 7025 nonzeros

Variable types: 13 continuous, 1171 integer (922 binary)

Root relaxation presolve removed 29 rows and 0 columns

Root relaxation presolved: 565 rows, 961 columns, 9420 nonzeros





Root relaxation: objective 5.898672e+01, 105 iterations, 0.01 seconds (0.01 work units)



    Nodes    |    Current Node    |     Objective Bounds      |     Work

 Expl Unexpl |  Obj  Depth IntInf | Incumbent    BestBd   Gap | It/Node Time



     0     0   58.98672    0   32          -   58.98672      -     -    0s

H    0     0                     440.0500000   58.98672  86.6%     -    0s

H    0     0                     418.3500000   58.98672  85.9%     -    0s

H    0     0                     358.5800000   65.00717  81.9%     -    0s

     0     0  160.36185    0   75  358.58000  160.36185  55.3%     -    0s

H    0     0                     352.3200000  160.36185  54.5%     -    0s

     0     0  160.36185    0   45  352.32000  160.36185  54.5%     -    0s

     0     0  160.36185    0   37  352.32000  160.36185  54.5%     -    0s

     0     0  160.36185    0   65  352.32000  160.36185  54.5%     -    0s

     0     0  160.36185    0   65  352.32000  160.36185  54.5%     -    0s

H    0     0                     323.1900000  164.52900  49.1%     -    0s

     0     0  164.52900    0   53  323.19000  164.52900  49.1%     -    0s

     0     0  166.73000    0   49  323.19000  166.73000  48.4%     -    0s

     0     0  166.73000    0   48  323.19000  166.73000  48.4%     -    0s

     0     0  166.73000    0   38  323.19000  166.73000  48.4%     -    1s

H    0     0                     303.6800000  166.73000  45.1%     -    1s

     0     0  169.00634    0   61  303.68000  169.00634  44.3%     -    1s

     0     0  170.05500    0   35  303.68000  170.05500  44.0%     -    1s

     0     0  171.74503    0   68  303.68000  171.74503  43.4%     -    1s

     0     0  171.74503    0   63  303.68000  171.74503  43.4%     -    1s

     0     2  171.74503    0   56  303.68000  171.74503  43.4%     -    1s

  3448  1583  297.87000   28  111  303.68000  192.74898  36.5%  15.5    5s

H 3712  1595                     301.9600000  194.18187  35.7%  17.4    6s

H 4555  1519                     298.8800000  194.40740  35.0%  17.8    6s

 24712  3426  278.94310   43   64  298.88000  235.94106  21.1%  17.2   10s

 44559  1964 infeasible   42       298.88000  263.84452  11.7%  17.0   15s



Cutting planes:

  Learned: 10

  Gomory: 24

  Lift-and-project: 17

  Cover: 34

  Implied bound: 90

  Projected implied bound: 19

  Clique: 39

  MIR: 62

  Mixing: 4

  StrongCG: 26

  Flow cover: 265

  Inf proof: 34

  Zero half: 222

  RLT: 50

  Relax-and-lift: 44



Explored 51545 nodes (865826 simplex iterations) in 17.47 seconds (12.42 work units)

Thread count was 20 (of 20 available processors)



Solution count 9: 298.88 298.88 301.96 ... 440.05



Optimal solution found (tolerance 1.00e-04)

Best objective 2.988800000000e+02, best bound 2.988800000000e+02, gap 0.0000%



AMPL MP initial flat model has 794 variables (0 integer, 757 binary);

Objectives: 1 linear; 

Constraints:  388 linear; 4 quadratic;



AMPL MP final model has 794 variables (0 integer, 757 binary);

Objectives: 1 linear; 

Constraints:  388 linear; 4 quadratic;





-----RESULTS INFO-----
running_time:  17.547
TC.best_bound:  298.88
TC:  298.88
MIP Gap (%):  0
=== Vehicle Routes ===
Vehicle 1: 0 → 11
Vehicle 1: 1 → 18
Vehicle 1: 2 → 1
Vehicle 1: 11 → 2
Vehicle 2: 0 → 16
Vehicle 2: 14 → 18
Vehicle 2: 16 → 14
Vehicle 3: 0 → 18
Vehicle 4: 0 → 18

=== Full Vehicle Routes ===
Vehicle 1: 0 → 11 → 2 → 1 → 0 (48<100)
Vehicle 2: 0 → 16 → 14 → 0 (90<100)
Vehicle 3: 0 → 0 (0<100)
Vehicle 4: 0 → 0 (0<100)
Arc used by MRT line: y variables:
Customer assigment to PL: u variables:
3 16
4 14
5 11
6 16
7 16
8 11
9 14
10 16
Node is served by regular vehicle: g variables:
1
2
11
14
16
Customer assigment to Home delivery: gm variables:
1
2
Node total demands: ntd variables:
1 13 1
2 12 1
7 0 0
8 0 0
9 0 0
10 0 0
17 0 0
11 23 1
12 0 0
13 0 0
14 36 1
15 0 0
16 54 1
Customer's demand delivered to PL: l variables:
3
4
5
6
7
8
9
10
Lockers load <= capacity:
0 <= 79
23 <= 70
0 <= 82
0 <= 88
36 <= 75
0 <= 94
54 <= 95
